1795
[0, 31, 48, 1, 52, 25, 24, 42, 22, 41, 21, 50, 23, 54, 27, 49, 45, 30, 46, 55, 34, 2, 33, 3, 4, 6, 5, 47, 28, 53, 43, 44, 29, 26, 17, 16, 15, 12, 13, 35, 7, 32, 8, 36, 9, 37, 11, 38, 19, 20, 40, 18, 39, 10, 51, 14, 0]
